NAME : XML100_3333_02
DIMENSION : 101
NB_CLUSTERS : 29
CLUSTERING_ALG : KMeans
CLUSTERING_PARAMS : k(34)
CLUSTERS
1 0
2 13 51 72
3 43 45 78
4 2 58 75 87
5 33 80 81 88 96
6 66 97
7 4 44 55 65 82
8 3 61
9 9 14 26 35 54 57 64 70
10 62 74 83
11 11 23 25 60 73 90 92
12 22 28
13 27 39
14 31 38 53
15 10 17 24 29 56 63 67 69 77 100
16 34 71
17 18 30 37 95
18 6 8 41
19 20 79 84
20 42 47
21 15 86 89 94
22 49 91
23 36 76
24 7 21 93
25 40 50
26 52 98
27 19 32 46 68 99
28 16 48
29 1 5 12 59 85
EOF